Minimize
  0.25 y_0 + 0.0833333333333333 y_1 + 0.125 y_2 + 0.0833333333333333 y_3
   + 0.1428571428571428 y_4 + 0.2 y_5 + 0.1111111111111111 y_6 + 0.1 y_7
   + 0.2 y_8 + 0.0714285714285714 y_9 + 0.25 y_10 + 0.1428571428571428 y_11
   + 0.1666666666666667 y_12 + 0.1 y_13 + 0.0909090909090909 y_14
   + 0.0909090909090909 y_15 + 0.0833333333333333 y_16 + 0.1 y_17
   + 0.2 y_18 + 0.0909090909090909 y_19 + 0.1111111111111111 y_20
   + 0.0714285714285714 y_21 + 0.125 y_22 + 0.1111111111111111 y_23
   + 0.1428571428571428 y_24 + 0.1428571428571428 y_25
   + 0.0714285714285714 y_26 + 0.1428571428571428 y_27
   + 0.1666666666666667 y_28 + 0.125 y_29 + 0.1111111111111111 y_30
   + 0.0909090909090909 y_31 + 0.125 y_32 + 0.1 y_33
   + 0.1666666666666667 y_34 + 0.125 y_35 + 0.1666666666666667 y_36
   + 0.1428571428571428 y_37 + 0.125 y_38 + 0.1666666666666667 y_39
   + 0.1111111111111111 y_40 + 0.125 y_41 + 0.0769230769230769 y_42
   + 0.125 y_43 + 0.1 y_44 + 0.25 y_45 + 0.125 y_46
   + 0.1666666666666667 y_47 + 0.125 y_48 + 0.1111111111111111 y_49
   + 0.1 y_50 + 0.0909090909090909 y_51 + 0.125 y_52 + 0.125 y_53
   + 0.1666666666666667 y_54 + 0.1428571428571428 y_55
   + 0.0909090909090909 y_56 + 0.1111111111111111 y_57
   + 0.0833333333333333 y_58 + 0.0909090909090909 y_59
   + 0.0833333333333333 y_60 + 0.125 y_61 + 0.0833333333333333 y_62
   + 0.2 y_63 + 0.0833333333333333 y_64 + 0.1111111111111111 y_65
   + 0.1666666666666667 y_66 + 0.0769230769230769 y_67
   + 0.1666666666666667 y_68 + 0.125 y_69 + 0.1 y_70
   + 0.0909090909090909 y_71 + 0.0769230769230769 y_72
   + 0.3333333333333333 y_73 + 0.1 y_74 + 0.1 y_75 + 0.125 y_76
   + 0.3333333333333333 y_77 + 0.125 y_78 + 0.0909090909090909 y_79
   + 0.25 y_80 + 0.1428571428571428 y_81 + 0.2 y_82
   + 0.1666666666666667 y_83 + 0.125 y_84 + 0.1428571428571428 y_85
   + 0.0769230769230769 y_86 + 0.1428571428571428 y_87 + 0.1 y_88
   + 0.0909090909090909 y_89 + 0.1428571428571428 y_90 + 0.125 y_91
   + 0.0909090909090909 y_92 + 0.1428571428571428 y_93
   + 0.3333333333333333 y_94 + 0.1111111111111111 y_95
   + 0.0833333333333333 y_96 + 0.125 y_97 + 0.1111111111111111 y_98
   + 0.0833333333333333 y_99 + 0.1111111111111111 y_100
   + 0.1666666666666667 y_101 + 0.0833333333333333 y_102
   + 0.0909090909090909 y_103 + 0.0769230769230769 y_104
   + 0.1428571428571428 y_105 + 0.5 y_106 + 0.0769230769230769 y_107
   + 0.0909090909090909 y_108 + y_109 + 0.1111111111111111 y_110
   + 0.1 y_111 + 0.1 y_112 + 0.0833333333333333 y_113
   + 0.0833333333333333 y_114 + 0.0909090909090909 y_115 + 0.2 y_116
   + 0.1111111111111111 y_117 + 0.0909090909090909 y_118
   + 0.0833333333333333 y_119 + 0.1666666666666667 y_120
   + 0.0769230769230769 y_121 + 0.1 y_122 + 0.1428571428571428 y_123
   + 0.1428571428571428 y_124 + 0.0909090909090909 y_125
   + 0.0909090909090909 y_126 + 0.125 y_127 + 0.1111111111111111 y_128
   + 0.1111111111111111 y_129 + 0.1 y_130 + 0.1111111111111111 y_131
   + 0.2 y_132 + 0.0909090909090909 y_133 + 0.1111111111111111 y_134
   + 0.1428571428571428 y_135 + 0.0909090909090909 y_136 + 0.125 y_137
   + 0.1 y_138 + 0.0714285714285714 y_139 + 0.2 y_140 + y_141 + 0.1 y_142
   + 0.1 y_143 + 0.125 y_144 + 0.0769230769230769 y_145 + 0.125 y_146
   + 0.125 y_147 + 0.0909090909090909 y_148 + 0.2 y_149 + 0.2 y_150
   + 0.0833333333333333 y_151 + 0.0714285714285714 y_152 + 0.2 y_153
   + 0.25 y_154 + 0.0833333333333333 y_155 + 0.25 y_156
   + 0.1666666666666667 y_157 + 0.1111111111111111 y_158
   + 0.1111111111111111 y_159 + 0.0833333333333333 y_160 + 0.25 y_161
   + 0.125 y_162 + 0.0769230769230769 y_163 + 0.0833333333333333 y_164
   + 0.0909090909090909 y_165 + 0.25 y_166 + 0.1666666666666667 y_167
   + 0.1428571428571428 y_168 + 0.3333333333333333 y_169
   + 0.1666666666666667 y_170 + 0.1 y_171 + 0.25 y_172
   + 0.1666666666666667 y_173 + 0.1111111111111111 y_174 + 0.1 y_175
   + 0.1111111111111111 y_176 + 0.1666666666666667 y_177
   + 0.0833333333333333 y_178 + 0.125 y_179 + 0.0833333333333333 y_180
   + 0.0909090909090909 y_181 + 0.1428571428571428 y_182 + 0.125 y_183
   + 0.0909090909090909 y_184 + 0.0909090909090909 y_185
   + 0.0833333333333333 y_186 + 0.1 y_187 + 0.125 y_188 + 0.25 y_189
   + 0.25 y_190 + 0.2 y_191 + 0.0833333333333333 y_192 + 0.125 y_193
   + 0.1 y_194 + 0.0833333333333333 y_195 + 0.1 y_196 + 0.125 y_197
   + 0.1 y_198 + 0.1 y_199 - 27.93603063603063 Constant
Subject To
 c_0: y_145 = 1
 c_1_0: y_0 + y_10 + y_45 + y_77 + y_106 + y_161 + y_172 + y_173 + y_191
   >= 1
 c_1_1: y_1 + y_64 + y_86 + y_192 >= 1
 c_1_2: y_2 + y_6 + y_27 + y_32 + y_40 + y_68 + y_84 + y_174 + y_179
   + y_183 + y_188 >= 1
 c_1_3: y_3 + y_19 + y_64 + y_72 + y_79 + y_86 + y_151 + y_163 + y_192
   >= 1
 c_1_4: y_4 + y_34 + y_35 + y_87 + y_129 + y_158 + y_159 + y_168 >= 1
 c_1_5: y_5 + y_12 + y_28 + y_80 + y_85 + y_116 + y_132 + y_149 + y_154
   + y_167 >= 1
 c_1_6: y_2 + y_6 + y_32 + y_40 + y_46 + y_84 + y_89 + y_146 + y_183
   + y_188 >= 1
 c_1_7: y_7 + y_118 + y_130 + y_185 >= 1
 c_1_8: y_8 + y_18 + y_123 + y_153 + y_161 + y_191 >= 1
 c_1_9: y_9 + y_21 + y_26 + y_72 >= 1
 c_1_10: y_0 + y_10 + y_18 + y_45 + y_73 + y_77 + y_106 + y_161 + y_191
   >= 1
 c_1_11: y_11 + y_34 + y_36 + y_39 + y_82 + y_93 + y_144 + y_157 + y_162
   + y_177 >= 1
 c_1_12: y_5 + y_12 + y_28 + y_85 + y_116 + y_132 + y_149 >= 1
 c_1_13: y_13 + y_70 + y_111 + y_199 >= 1
 c_1_14: y_14 + y_114 + y_115 + y_164 + y_199 >= 1
 c_1_15: y_15 + y_50 + y_51 + y_136 + y_142 + y_194 >= 1
 c_1_16: y_16 + y_60 + y_71 + y_92 + y_102 + y_155 + y_165 + y_178 + y_181
   >= 1
 c_1_17: y_17 + y_43 + y_56 + y_74 >= 1
 c_1_18: y_8 + y_10 + y_18 + y_45 + y_73 + y_153 + y_161 + y_191 >= 1
 c_1_19: y_3 + y_19 + y_79 + y_96 + y_151 + y_163 + y_196 >= 1
 c_1_20: y_20 + y_25 + y_41 + y_53 + y_55 + y_75 + y_138 + y_197 >= 1
 c_1_21: y_9 + y_21 + y_26 + y_72 + y_151 + y_163 >= 1
 c_1_22: y_22 + y_29 + y_91 + y_110 + y_153 + y_193 >= 1
 c_1_23: y_23 + y_48 + y_137 + y_144 + y_162 + y_184 >= 1
 c_1_24: y_24 + y_54 + y_69 + y_76 + y_83 + y_105 + y_147 >= 1
 c_1_25: y_20 + y_25 + y_41 + y_55 + y_66 + y_117 + y_120 + y_124 + y_127
   + y_182 + y_197 >= 1
 c_1_26: y_9 + y_21 + y_26 + y_72 + y_151 + y_163 >= 1
 c_1_27: y_2 + y_27 + y_32 + y_68 + y_84 + y_174 + y_179 >= 1
 c_1_28: y_5 + y_12 + y_28 + y_85 + y_116 + y_132 + y_149 + y_167 >= 1
 c_1_29: y_22 + y_29 + y_78 + y_97 + y_110 + y_123 + y_193 >= 1
 c_1_30: y_30 + y_33 + y_38 + y_52 + y_53 + y_57 >= 1
 c_1_31: y_31 + y_108 + y_125 + y_146 + y_148 + y_175 >= 1
 c_1_32: y_2 + y_6 + y_27 + y_32 + y_40 + y_84 + y_112 + y_174 + y_179
   + y_183 + y_188 + y_198 >= 1
 c_1_33: y_30 + y_33 + y_38 + y_52 + y_57 + y_115 >= 1
 c_1_34: y_4 + y_11 + y_34 + y_39 + y_48 + y_82 + y_87 + y_93 + y_157
   + y_168 + y_177 >= 1
 c_1_35: y_4 + y_35 + y_44 + y_49 + y_128 + y_129 + y_143 + y_158 + y_159
   + y_168 + y_179 >= 1
 c_1_36: y_11 + y_36 + y_39 + y_82 + y_93 + y_135 + y_144 + y_157 + y_162
   + y_167 + y_177 >= 1
 c_1_37: y_37 + y_43 + y_85 + y_135 + y_167 >= 1
 c_1_38: y_30 + y_33 + y_38 + y_52 + y_53 + y_57 + y_81 + y_90 + y_101
   + y_173 >= 1
 c_1_39: y_11 + y_34 + y_36 + y_39 + y_82 + y_93 + y_144 + y_157 + y_162
   + y_177 >= 1
 c_1_40: y_2 + y_6 + y_32 + y_40 + y_84 + y_89 + y_108 + y_112 + y_133
   + y_183 + y_188 >= 1
 c_1_41: y_20 + y_25 + y_41 + y_53 + y_55 + y_66 + y_120 + y_197 >= 1
 c_1_42: y_42 + y_104 + y_113 + y_119 + y_195 >= 1
 c_1_43: y_17 + y_37 + y_43 + y_85 + y_167 >= 1
 c_1_44: y_35 + y_44 + y_122 + y_128 + y_143 + y_174 + y_198 >= 1
 c_1_45: y_0 + y_10 + y_18 + y_45 + y_77 + y_106 + y_161 + y_172 + y_191
   >= 1
 c_1_46: y_6 + y_46 + y_47 + y_100 + y_124 + y_127 + y_146 + y_188 >= 1
 c_1_47: y_46 + y_47 + y_68 + y_140 + y_150 + y_170 + y_188 >= 1
 c_1_48: y_23 + y_34 + y_48 + y_49 + y_87 + y_129 + y_137 + y_142 + y_157
   + y_177 >= 1
 c_1_49: y_35 + y_48 + y_49 + y_50 + y_51 + y_87 + y_129 + y_137 + y_142
   + y_158 + y_159 + y_194 >= 1
 c_1_50: y_15 + y_49 + y_50 + y_51 + y_129 + y_136 + y_137 + y_142 + y_158
   + y_194 >= 1
 c_1_51: y_15 + y_49 + y_50 + y_51 + y_136 + y_142 + y_194 >= 1
 c_1_52: y_30 + y_33 + y_38 + y_52 + y_53 + y_57 + y_81 + y_90 + y_101
   + y_173 >= 1
 c_1_53: y_20 + y_30 + y_38 + y_41 + y_52 + y_53 + y_55 + y_75 + y_197
   >= 1
 c_1_54: y_24 + y_54 + y_63 + y_69 + y_91 + y_105 + y_147 >= 1
 c_1_55: y_20 + y_25 + y_41 + y_53 + y_55 + y_66 + y_120 + y_197 >= 1
 c_1_56: y_17 + y_56 + y_74 + y_130 >= 1
 c_1_57: y_30 + y_33 + y_38 + y_52 + y_57 + y_90 >= 1
 c_1_58: y_58 + y_145 + y_152 >= 1
 c_1_59: y_59 + y_88 + y_110 >= 1
 c_1_60: y_16 + y_60 + y_165 + y_178 + y_181 + y_184 >= 1
 c_1_61: y_61 + y_78 + y_90 + y_97 + y_123 + y_131 + y_176 >= 1
 c_1_62: y_62 + y_96 + y_99 + y_160 >= 1
 c_1_63: y_54 + y_63 + y_83 + y_105 + y_189 >= 1
 c_1_64: y_1 + y_3 + y_64 + y_79 + y_86 + y_192 >= 1
 c_1_65: y_65 + y_79 + y_98 + y_134 + y_171 >= 1
 c_1_66: y_25 + y_41 + y_55 + y_66 + y_120 + y_197 >= 1
 c_1_67: y_67 + y_114 + y_145 + y_152 + y_164 >= 1
 c_1_68: y_2 + y_27 + y_47 + y_68 + y_140 + y_156 + y_170 >= 1
 c_1_69: y_24 + y_54 + y_69 + y_76 + y_105 + y_147 >= 1
 c_1_70: y_13 + y_70 + y_88 + y_111 >= 1
 c_1_71: y_16 + y_71 + y_92 + y_102 + y_103 + y_126 + y_155 >= 1
 c_1_72: y_3 + y_9 + y_21 + y_26 + y_72 + y_86 + y_151 + y_163 >= 1
 c_1_73: y_10 + y_18 + y_73 + y_77 + y_106 + y_161 + y_191 >= 1
 c_1_74: y_17 + y_56 + y_74 >= 1
 c_1_75: y_20 + y_53 + y_75 + y_138 >= 1
 c_1_76: y_24 + y_69 + y_76 + y_83 + y_105 + y_147 >= 1
 c_1_77: y_0 + y_10 + y_45 + y_73 + y_77 + y_106 + y_109 + y_141 + y_161
   + y_172 + y_191 >= 1
 c_1_78: y_29 + y_61 + y_78 + y_97 + y_123 + y_131 + y_176 >= 1
 c_1_79: y_3 + y_19 + y_64 + y_65 + y_79 + y_86 + y_151 + y_192 + y_196
   >= 1
 c_1_80: y_5 + y_80 + y_116 + y_132 + y_149 + y_154 + y_169 + y_189 >= 1
 c_1_81: y_38 + y_52 + y_81 + y_90 + y_101 + y_173 >= 1
 c_1_82: y_11 + y_34 + y_36 + y_39 + y_82 + y_93 + y_157 + y_177 >= 1
 c_1_83: y_24 + y_63 + y_76 + y_83 + y_105 >= 1
 c_1_84: y_2 + y_6 + y_27 + y_32 + y_40 + y_84 + y_174 + y_179 + y_183
   + y_188 >= 1
 c_1_85: y_5 + y_12 + y_28 + y_37 + y_43 + y_85 + y_116 + y_132 + y_167
   >= 1
 c_1_86: y_1 + y_3 + y_64 + y_72 + y_79 + y_86 + y_192 >= 1
 c_1_87: y_4 + y_34 + y_48 + y_49 + y_87 + y_129 + y_137 + y_157 + y_158
   + y_159 + y_168 >= 1
 c_1_88: y_59 + y_70 + y_88 + y_110 + y_193 >= 1
 c_1_89: y_6 + y_40 + y_89 + y_108 + y_112 + y_121 + y_133 + y_180 + y_186
   >= 1
 c_1_90: y_38 + y_52 + y_57 + y_61 + y_81 + y_90 + y_101 + y_131 + y_173
   + y_176 >= 1
 c_1_91: y_22 + y_54 + y_91 + y_110 + y_193 >= 1
 c_1_92: y_16 + y_71 + y_92 + y_102 + y_103 + y_126 + y_155 >= 1
 c_1_93: y_11 + y_34 + y_36 + y_39 + y_82 + y_93 + y_144 + y_157 + y_162
   + y_177 >= 1
 c_1_94: y_94 + y_140 + y_156 + y_166 + y_190 >= 1
 c_1_95: y_95 + y_100 + y_117 + y_125 + y_127 + y_146 + y_175 >= 1
 c_1_96: y_19 + y_62 + y_96 + y_99 + y_151 + y_160 + y_163 + y_196 >= 1
 c_1_97: y_29 + y_61 + y_78 + y_97 + y_123 + y_131 + y_176 >= 1
 c_1_98: y_65 + y_98 + y_134 + y_171 + y_187 >= 1
 c_1_99: y_62 + y_96 + y_99 + y_160 >= 1
 c_1_100: y_46 + y_95 + y_100 + y_117 + y_124 + y_127 + y_146 + y_175
   + y_182 >= 1
 c_1_101: y_38 + y_52 + y_81 + y_90 + y_101 + y_173 >= 1
 c_1_102: y_16 + y_71 + y_92 + y_102 + y_103 + y_126 + y_155 >= 1
 c_1_103: y_71 + y_92 + y_102 + y_103 + y_113 + y_119 + y_126 + y_155
   + y_195 >= 1
 c_1_104: y_42 + y_104 + y_113 + y_119 + y_139 + y_195 >= 1
 c_1_105: y_24 + y_54 + y_63 + y_69 + y_76 + y_83 + y_105 + y_147 >= 1
 c_1_106: y_0 + y_10 + y_45 + y_73 + y_77 + y_106 + y_109 + y_141 + y_161
   + y_172 >= 1
 c_1_107: y_107 + y_121 >= 1
 c_1_108: y_31 + y_40 + y_89 + y_108 + y_133 + y_148 + y_186 >= 1
 c_1_109: y_77 + y_106 + y_109 + y_141 >= 1
 c_1_110: y_22 + y_29 + y_59 + y_88 + y_91 + y_110 + y_193 >= 1
 c_1_111: y_13 + y_70 + y_111 + y_131 + y_176 + y_199 >= 1
 c_1_112: y_32 + y_40 + y_89 + y_112 + y_128 + y_174 + y_180 + y_198 >= 1
 c_1_113: y_42 + y_103 + y_104 + y_113 + y_119 + y_126 + y_195 >= 1
 c_1_114: y_14 + y_67 + y_114 + y_115 + y_164 >= 1
 c_1_115: y_14 + y_33 + y_114 + y_115 + y_164 >= 1
 c_1_116: y_5 + y_12 + y_28 + y_80 + y_85 + y_116 + y_132 + y_149 + y_154
   + y_169 >= 1
 c_1_117: y_25 + y_95 + y_100 + y_117 + y_127 + y_175 >= 1
 c_1_118: y_7 + y_118 + y_130 + y_185 >= 1
 c_1_119: y_42 + y_103 + y_104 + y_113 + y_119 + y_126 + y_195 >= 1
 c_1_120: y_25 + y_41 + y_55 + y_66 + y_120 >= 1
 c_1_121: y_89 + y_107 + y_121 + y_133 + y_180 + y_186 >= 1
 c_1_122: y_44 + y_122 + y_128 + y_143 + y_174 + y_198 >= 1
 c_1_123: y_8 + y_29 + y_61 + y_78 + y_97 + y_123 + y_191 >= 1
 c_1_124: y_25 + y_46 + y_100 + y_124 + y_127 + y_150 + y_182 >= 1
 c_1_125: y_31 + y_95 + y_125 + y_175 >= 1
 c_1_126: y_71 + y_92 + y_102 + y_103 + y_113 + y_119 + y_126 + y_155
   + y_195 >= 1
 c_1_127: y_25 + y_46 + y_95 + y_100 + y_117 + y_124 + y_127 + y_146
   + y_150 + y_182 >= 1
 c_1_128: y_35 + y_44 + y_112 + y_122 + y_128 + y_143 + y_159 + y_174
   + y_179 + y_198 >= 1
 c_1_129: y_4 + y_35 + y_48 + y_49 + y_50 + y_87 + y_129 + y_137 + y_142
   + y_158 + y_159 + y_194 >= 1
 c_1_130: y_7 + y_56 + y_118 + y_130 + y_185 >= 1
 c_1_131: y_61 + y_78 + y_90 + y_97 + y_111 + y_131 + y_176 + y_199 >= 1
 c_1_132: y_5 + y_12 + y_28 + y_80 + y_85 + y_116 + y_132 + y_149 + y_154
   + y_167 >= 1
 c_1_133: y_40 + y_89 + y_108 + y_121 + y_133 + y_148 + y_180 + y_186 >= 1
 c_1_134: y_65 + y_98 + y_134 + y_171 >= 1
 c_1_135: y_36 + y_37 + y_135 + y_144 + y_162 + y_167 >= 1
 c_1_136: y_15 + y_50 + y_51 + y_136 + y_142 + y_194 >= 1
 c_1_137: y_23 + y_48 + y_49 + y_50 + y_87 + y_129 + y_137 + y_142 >= 1
 c_1_138: y_20 + y_75 + y_138 + y_197 >= 1
 c_1_139: y_104 + y_139 >= 1
 c_1_140: y_47 + y_68 + y_94 + y_140 + y_156 + y_166 + y_170 + y_190 >= 1
 c_1_141: y_77 + y_106 + y_109 + y_141 >= 1
 c_1_142: y_15 + y_48 + y_49 + y_50 + y_51 + y_129 + y_136 + y_137 + y_142
   + y_194 >= 1
 c_1_143: y_35 + y_44 + y_122 + y_128 + y_143 + y_198 >= 1
 c_1_144: y_11 + y_23 + y_36 + y_39 + y_93 + y_135 + y_144 + y_162 >= 1
 c_1_145: y_58 + y_67 + y_145 + y_152 >= 1
 c_1_146: y_6 + y_31 + y_46 + y_95 + y_100 + y_127 + y_146 + y_188 >= 1
 c_1_147: y_24 + y_54 + y_69 + y_76 + y_105 + y_147 >= 1
 c_1_148: y_31 + y_108 + y_133 + y_148 + y_186 >= 1
 c_1_149: y_5 + y_12 + y_28 + y_80 + y_116 + y_132 + y_149 + y_154 + y_169
   + y_189 >= 1
 c_1_150: y_47 + y_124 + y_127 + y_150 + y_166 + y_182 + y_190 >= 1
 c_1_151: y_3 + y_19 + y_21 + y_26 + y_72 + y_79 + y_96 + y_151 + y_163
   + y_196 >= 1
 c_1_152: y_58 + y_67 + y_145 + y_152 + y_164 >= 1
 c_1_153: y_8 + y_18 + y_22 + y_153 + y_191 >= 1
 c_1_154: y_5 + y_80 + y_116 + y_132 + y_149 + y_154 + y_169 >= 1
 c_1_155: y_16 + y_71 + y_92 + y_102 + y_103 + y_126 + y_155 >= 1
 c_1_156: y_68 + y_94 + y_140 + y_156 + y_166 + y_170 >= 1
 c_1_157: y_11 + y_34 + y_36 + y_39 + y_48 + y_82 + y_87 + y_93 + y_157
   + y_168 + y_177 >= 1
 c_1_158: y_4 + y_35 + y_49 + y_50 + y_87 + y_129 + y_158 + y_159 >= 1
 c_1_159: y_4 + y_35 + y_49 + y_87 + y_128 + y_129 + y_158 + y_159 >= 1
 c_1_160: y_62 + y_96 + y_99 + y_160 >= 1
 c_1_161: y_0 + y_8 + y_10 + y_18 + y_45 + y_73 + y_77 + y_106 + y_161
   + y_191 >= 1
 c_1_162: y_11 + y_23 + y_36 + y_39 + y_93 + y_135 + y_144 + y_162 >= 1
 c_1_163: y_3 + y_19 + y_21 + y_26 + y_72 + y_96 + y_151 + y_163 >= 1
 c_1_164: y_14 + y_67 + y_114 + y_115 + y_152 + y_164 >= 1
 c_1_165: y_16 + y_60 + y_165 + y_178 + y_181 + y_184 >= 1
 c_1_166: y_94 + y_140 + y_150 + y_156 + y_166 + y_170 + y_172 + y_190
   >= 1
 c_1_167: y_5 + y_28 + y_36 + y_37 + y_43 + y_85 + y_132 + y_135 + y_167
   >= 1
 c_1_168: y_4 + y_34 + y_35 + y_87 + y_157 + y_168 >= 1
 c_1_169: y_80 + y_116 + y_149 + y_154 + y_169 + y_189 >= 1
 c_1_170: y_47 + y_68 + y_140 + y_156 + y_166 + y_170 >= 1
 c_1_171: y_65 + y_98 + y_134 + y_171 + y_187 >= 1
 c_1_172: y_0 + y_45 + y_77 + y_106 + y_166 + y_172 + y_190 >= 1
 c_1_173: y_0 + y_38 + y_52 + y_81 + y_90 + y_101 + y_173 >= 1
 c_1_174: y_2 + y_27 + y_32 + y_44 + y_84 + y_112 + y_122 + y_128 + y_174
   + y_179 + y_183 + y_198 >= 1
 c_1_175: y_31 + y_95 + y_100 + y_117 + y_125 + y_175 >= 1
 c_1_176: y_61 + y_78 + y_90 + y_97 + y_111 + y_131 + y_176 + y_199 >= 1
 c_1_177: y_11 + y_34 + y_36 + y_39 + y_48 + y_82 + y_93 + y_157 + y_177
   >= 1
 c_1_178: y_16 + y_60 + y_165 + y_178 + y_181 + y_184 >= 1
 c_1_179: y_2 + y_27 + y_32 + y_35 + y_84 + y_128 + y_174 + y_179 + y_198
   >= 1
 c_1_180: y_89 + y_112 + y_121 + y_133 + y_180 + y_186 >= 1
 c_1_181: y_16 + y_60 + y_165 + y_178 + y_181 + y_184 >= 1
 c_1_182: y_25 + y_100 + y_124 + y_127 + y_150 + y_182 >= 1
 c_1_183: y_2 + y_6 + y_32 + y_40 + y_84 + y_174 + y_183 + y_188 >= 1
 c_1_184: y_23 + y_60 + y_165 + y_178 + y_181 + y_184 >= 1
 c_1_185: y_7 + y_118 + y_130 + y_185 + y_187 >= 1
 c_1_186: y_89 + y_108 + y_121 + y_133 + y_148 + y_180 + y_186 >= 1
 c_1_187: y_98 + y_171 + y_185 + y_187 >= 1
 c_1_188: y_2 + y_6 + y_32 + y_40 + y_46 + y_47 + y_84 + y_146 + y_183
   + y_188 >= 1
 c_1_189: y_63 + y_80 + y_149 + y_169 + y_189 >= 1
 c_1_190: y_94 + y_140 + y_150 + y_166 + y_172 + y_190 >= 1
 c_1_191: y_0 + y_8 + y_10 + y_18 + y_45 + y_73 + y_77 + y_123 + y_153
   + y_161 + y_191 >= 1
 c_1_192: y_1 + y_3 + y_64 + y_79 + y_86 + y_192 >= 1
 c_1_193: y_22 + y_29 + y_88 + y_91 + y_110 + y_193 >= 1
 c_1_194: y_15 + y_49 + y_50 + y_51 + y_129 + y_136 + y_142 + y_194 >= 1
 c_1_195: y_42 + y_103 + y_104 + y_113 + y_119 + y_126 + y_195 >= 1
 c_1_196: y_19 + y_79 + y_96 + y_151 + y_196 >= 1
 c_1_197: y_20 + y_25 + y_41 + y_53 + y_55 + y_66 + y_138 + y_197 >= 1
 c_1_198: y_32 + y_44 + y_112 + y_122 + y_128 + y_143 + y_174 + y_179
   + y_198 >= 1
 c_1_199: y_13 + y_14 + y_111 + y_131 + y_176 + y_199 >= 1
Bounds
 Constant = 1
Binaries
 y_0 y_1 y_2 y_3 y_4 y_5 y_6 y_7 y_8 y_9 y_10 y_11 y_12 y_13 y_14 y_15 y_16
 y_17 y_18 y_19 y_20 y_21 y_22 y_23 y_24 y_25 y_26 y_27 y_28 y_29 y_30 y_31
 y_32 y_33 y_34 y_35 y_36 y_37 y_38 y_39 y_40 y_41 y_42 y_43 y_44 y_45 y_46
 y_47 y_48 y_49 y_50 y_51 y_52 y_53 y_54 y_55 y_56 y_57 y_58 y_59 y_60 y_61
 y_62 y_63 y_64 y_65 y_66 y_67 y_68 y_69 y_70 y_71 y_72 y_73 y_74 y_75 y_76
 y_77 y_78 y_79 y_80 y_81 y_82 y_83 y_84 y_85 y_86 y_87 y_88 y_89 y_90 y_91
 y_92 y_93 y_94 y_95 y_96 y_97 y_98 y_99 y_100 y_101 y_102 y_103 y_104
 y_105 y_106 y_107 y_108 y_109 y_110 y_111 y_112 y_113 y_114 y_115 y_116
 y_117 y_118 y_119 y_120 y_121 y_122 y_123 y_124 y_125 y_126 y_127 y_128
 y_129 y_130 y_131 y_132 y_133 y_134 y_135 y_136 y_137 y_138 y_139 y_140
 y_141 y_142 y_143 y_144 y_145 y_146 y_147 y_148 y_149 y_150 y_151 y_152
 y_153 y_154 y_155 y_156 y_157 y_158 y_159 y_160 y_161 y_162 y_163 y_164
 y_165 y_166 y_167 y_168 y_169 y_170 y_171 y_172 y_173 y_174 y_175 y_176
 y_177 y_178 y_179 y_180 y_181 y_182 y_183 y_184 y_185 y_186 y_187 y_188
 y_189 y_190 y_191 y_192 y_193 y_194 y_195 y_196 y_197 y_198 y_199
End
